c b=10,c=263
p cnf 29 1586
1 2 3 5 6 8 9 10 -20 0
1 2 3 4 6 7 9 10 -21 0
1 2 3 4 5 7 8 10 -22 0
1 3 4 10 -28 0
1 2 3 5 6 8 9 -10 20 0
1 2 3 5 6 8 -10 21 0
1 2 3 4 5 6 8 9 -10 22 0
1 2 4 5 -10 28 0
1 2 4 5 7 8 9 -19 0
1 2 3 4 5 6 8 9 -23 0
3 5 9 -27 0
1 2 4 5 7 -9 10 20 0
1 3 4 5 10 -23 0
1 2 4 5 7 -9 -10 -20 0
1 2 4 5 -9 -10 23 0
1 2 4 5 7 8 -9 19 0
1 2 3 4 5 7 8 -9 21 0
1 2 3 4 5 7 8 -9 -22 0
1 2 4 5 -9 27 0
1 3 4 6 7 8 -18 0
1 2 3 5 8 -26 0
1 2 3 4 6 7 -8 10 20 0
1 2 3 4 6 7 -8 -10 -20 0
1 2 4 5 -8 -10 23 0
1 3 4 6 -8 9 19 0
2 3 4 -8 9 -22 0
1 3 4 6 -8 -9 -19 0
1 3 4 -8 -9 22 0
1 3 4 6 7 -8 18 0
1 2 3 4 6 7 -8 -21 0
1 2 4 5 -8 26 0
2 3 5 6 7 -17 0
1 4 5 7 -25 0
1 2 3 5 6 -7 10 -20 0
1 2 3 -7 8 10 -21 0
2 3 4 -7 9 10 -22 0
1 2 3 5 6 -7 -10 20 0
1 2 3 5 6 -7 9 19 0
1 3 4 -7 -9 10 22 0
2 3 4 5 6 8 -9 -10 -22 0
1 2 3 5 6 -7 -9 -19 0
2 3 5 -7 8 18 0
2 3 -7 -8 10 21 0
1 2 3 6 -8 -10 -21 0
2 3 5 -7 -8 -18 0
2 3 5 6 -7 17 0
1 2 4 5 -7 25 0
1 2 4 5 6 -16 0
2 4 5 6 -24 0
1 2 -6 7 9 10 -20 0
1 2 3 -6 8 9 10 -21 0
1 2 -6 7 9 -10 20 0
1 2 3 7 8 -10 21 0
1 2 3 4 7 8 9 -10 22 0
1 2 4 5 -6 9 -19 0
2 3 4 5 7 8 9 -23 0
1 2 4 5 -6 -9 19 0
1 2 4 5 -6 8 18 0
2 3 -6 -8 9 10 21 0
1 2 3 7 -8 -10 -21 0
1 2 3 4 7 -8 -9 -21 0
1 2 4 5 -6 -8 -18 0
1 2 4 -6 7 17 0
1 2 -6 -7 9 10 20 0
1 2 -6 -7 9 -10 -20 0
1 2 4 5 -6 -7 -10 23 0
1 2 3 -6 -7 8 9 -21 0
2 3 4 -6 -7 9 -22 0
1 2 5 -7 -9 10 -20 0
1 2 5 -7 -9 -10 20 0
1 2 3 5 8 -9 -10 21 0
1 2 3 4 5 -6 -7 8 -10 -22 0
2 3 -6 -7 -8 9 21 0
1 2 3 5 -8 -9 -10 -21 0
1 2 4 -6 -7 -17 0
1 2 4 5 -6 16 0
1 2 4 5 -6 24 0
1 3 4 5 -15 0
1 2 4 5 -29 0
1 2 -5 7 8 9 10 -20 0
1 2 3 4 6 7 8 10 -22 0
1 2 -5 7 8 9 -10 20 0
6 -10 28 0
1 -5 6 8 9 -19 0
1 2 3 4 -5 7 8 9 23 0
2 3 4 6 7 8 9 -24 0
6 9 -27 0
1 2 6 7 -9 10 20 0
1 3 4 -5 10 23 0
3 4 6 10 -24 0
1 2 6 7 -9 -10 -20 0
1 2 4 -5 -9 -10 -23 0
-5 6 -9 -10 24 0
1 -5 6 8 -9 19 0
1 2 3 6 7 8 -9 21 0
1 2 3 4 6 7 8 -9 -22 0
6 -9 27 0
1 3 4 -5 8 -18 0
6 8 -26 0
1 2 4 -5 -8 -10 -23 0
-5 6 -8 -10 24 0
1 3 4 -5 -8 18 0
6 -8 26 0
1 3 4 -5 7 17 0
6 7 -25 0
1 2 -5 -7 8 9 10 20 0
1 2 -5 -7 8 9 -10 -20 0
1 2 4 -5 -7 -10 -23 0
-5 6 -7 -10 24 0
1 2 3 -5 -7 8 9 -21 0
2 3 4 -5 -7 9 -22 0
1 2 6 -7 -9 10 -20 0
1 2 6 -7 -9 -10 20 0
1 2 3 6 8 -9 -10 21 0
1 2 3 4 -5 6 -7 8 -10 -22 0
1 2 3 6 -7 -8 10 -20 0
1 2 3 6 -7 -8 -10 20 0
1 3 4 -5 -7 -17 0
6 -7 25 0
1 3 -5 6 16 0
6 -29 0
1 2 -5 -6 7 8 10 -20 0
1 2 3 -5 -6 8 10 -21 0
2 3 4 -5 9 10 -22 0
1 2 -5 -6 7 8 -10 20 0
7 -10 28 0
1 -5 -6 8 9 19 0
1 2 3 4 -6 7 8 9 24 0
1 2 3 4 7 8 9 -25 0
7 9 -27 0
1 3 4 -5 -6 -9 10 22 0
1 3 4 -6 10 24 0
1 2 4 7 10 -25 0
2 3 4 7 8 -9 -10 -22 0
-5 -6 -9 -10 -24 0
-5 -6 7 -9 -10 25 0
1 -5 -6 8 -9 -19 0
7 -9 27 0
7 8 -26 0
-5 -6 -8 -10 -24 0
-5 -6 7 -8 -10 25 0
1 4 -6 -8 9 -19 0
1 2 4 7 -8 -9 10 20 0
1 2 4 7 -8 -9 -10 -20 0
1 4 -6 -8 -9 19 0
7 -8 26 0
7 -29 0
1 2 -5 -6 -7 8 10 20 0
1 3 4 -7 10 25 0
2 4 8 10 -26 0
1 2 -5 -6 -7 8 -10 -20 0
-5 -6 -7 -10 -24 0
-5 -6 -7 -10 -25 0
-5 -6 -7 8 -10 26 0
8 -10 28 0
8 9 -27 0
1 3 4 -5 -6 -7 -9 22 0
8 -9 27 0
1 2 3 -5 -6 -7 8 -21 0
8 -29 0
1 3 4 -8 10 26 0
1 3 4 9 10 -27 0
-5 -6 -7 -8 -10 -26 0
-5 -6 -7 -8 9 -10 27 0
9 -10 28 0
9 -29 0
1 2 4 -7 -8 -9 10 -20 0
1 3 4 -9 10 27 0
10 -29 0
1 2 4 -7 -8 -9 -10 20 0
1 2 3 -5 -6 -7 -9 -10 -21 0
-5 -6 -7 -8 -9 -10 -27 0
-5 -6 -7 -8 -9 -10 29 0
1 3 4 -5 -6 -7 -8 -9 -28 0
1 3 -5 -6 -16 0
1 3 4 -5 15 0
2 3 4 -14 0
1 2 3 5 6 7 9 10 -21 0
1 2 3 -4 6 7 8 10 22 0
1 2 3 5 6 7 8 10 -23 0
5 10 -28 0
1 2 3 -4 5 6 8 9 -10 -22 0
1 2 3 -4 5 8 -10 23 0
1 -4 6 7 8 9 -19 0
1 -4 6 7 8 -9 19 0
1 2 3 -4 6 7 8 -9 22 0
-4 5 7 8 -18 0
2 3 5 6 8 -24 0
1 2 5 6 7 -8 10 20 0
2 3 5 9 10 -23 0
1 2 5 6 7 -8 -10 -20 0
3 -4 5 9 -10 23 0
1 5 6 -8 9 19 0
2 3 -4 -8 9 22 0
1 2 5 6 9 -24 0
-4 5 -8 -9 10 23 0
5 6 10 -24 0
-4 5 -8 -9 -10 -23 0
-4 6 -8 -9 -10 24 0
1 5 6 -8 -9 -19 0
1 3 -4 -8 -9 -22 0
-4 5 7 -8 18 0
1 2 3 5 6 7 -8 -21 0
2 3 -4 7 -17 0
2 3 -4 9 10 22 0
1 3 -4 -7 -9 10 -22 0
1 2 3 -4 5 8 -9 -10 22 0
1 2 3 -4 5 -7 8 -9 23 0
-4 5 -7 -9 10 23 0
2 3 -4 -7 17 0
2 3 -4 6 16 0
1 2 -4 -6 7 8 10 -20 0
1 2 3 -4 -6 8 10 -21 0
1 2 -4 -6 7 8 -10 20 0
1 2 3 -4 7 8 9 -10 -22 0
1 -4 -6 7 8 9 19 0
1 3 -4 -6 -9 10 -22 0
1 -4 -6 7 8 -9 -19 0
1 2 3 -4 5 -6 8 -9 23 0
1 2 3 5 -6 8 24 0
2 3 5 7 8 -25 0
1 5 -6 -8 9 -19 0
3 5 -6 9 24 0
2 5 7 9 -25 0
1 2 5 7 -8 -9 10 20 0
-4 5 -6 -9 10 23 0
5 -6 10 24 0
5 7 10 -25 0
1 2 5 7 -8 -9 -10 -20 0
-4 -6 -8 -9 -10 -24 0
-4 -6 7 -8 -9 -10 25 0
1 5 -6 -8 -9 19 0
1 2 3 5 7 -8 -9 -21 0
1 2 5 -6 -7 9 -19 0
2 3 -4 -6 -7 9 22 0
1 2 3 -4 5 -6 -7 8 -10 22 0
1 2 5 -6 -7 -9 19 0
1 2 3 5 -7 8 25 0
3 5 -7 9 25 0
3 5 -8 9 26 0
5 -7 10 25 0
5 -8 10 26 0
5 -9 10 27 0
-4 -6 -7 -8 -9 -10 -25 0
1 2 3 -4 5 -6 -7 -9 -10 -26 0
3 -4 5 -6 -7 -8 -10 -27 0
-4 -6 -7 -8 -9 -10 29 0
-4 5 -6 -7 -8 -9 -28 0
2 3 -4 -6 -16 0
2 -4 5 15 0
1 2 -4 -5 7 9 10 -20 0
1 2 3 -4 -5 8 9 10 -21 0
1 2 3 -5 6 7 8 10 23 0
1 2 3 6 7 8 10 -24 0
6 10 -28 0
1 2 -4 -5 7 9 -10 20 0
1 2 3 -4 -5 6 8 -10 -23 0
-4 -5 6 -10 24 0
1 -4 -5 6 7 9 -19 0
1 -4 -5 6 7 -9 19 0
-4 -5 7 8 18 0
2 3 -4 -5 -8 9 10 21 0
2 3 -5 9 10 23 0
1 3 6 9 10 -24 0
3 -4 -5 9 -10 -23 0
-4 -5 -8 -9 10 -23 0
-4 -5 -8 -9 -10 23 0
1 2 3 6 7 -8 -9 -21 0
-4 -5 6 -8 -9 24 0
-4 -5 7 -8 -18 0
2 3 -4 -5 -7 9 22 0
1 2 3 -4 -5 6 -7 8 -10 22 0
1 2 3 -4 -5 6 -7 8 -9 -23 0
-4 -5 6 -7 -9 24 0
3 -5 -7 8 -18 0
1 3 6 -7 -8 9 19 0
-4 -5 -7 -9 10 -23 0
1 3 6 -7 -8 -9 -19 0
3 -5 -7 -8 18 0
1 2 -4 -5 -6 7 10 -20 0
2 3 -6 9 10 24 0
1 3 7 9 10 -25 0
7 10 -28 0
1 2 -4 -5 -6 7 -10 20 0
2 3 -4 -5 7 8 -10 -23 0
-4 -5 -6 -10 -24 0
-4 -5 -6 7 -10 25 0
1 -4 -5 -6 7 9 19 0
1 2 3 -4 7 8 -9 -10 22 0
1 -4 -5 -6 7 -9 -19 0
2 3 -4 -5 -6 7 8 -9 -23 0
-4 -5 -6 -9 -24 0
-4 -5 -6 7 -9 25 0
2 3 -4 -5 -6 -8 10 21 0
-4 -5 -6 -9 10 -23 0
2 3 -7 9 10 25 0
2 3 8 9 10 -26 0
8 10 -28 0
-4 -5 -6 -7 -9 -10 23 0
1 3 -4 -5 -6 -7 -9 -22 0
-4 -5 -6 -7 -9 -25 0
-4 -5 -6 -7 8 -9 26 0
2 3 -8 9 10 26 0
2 3 -4 -5 -6 -7 -8 10 -27 0
9 10 -28 0
1 3 -6 -7 -8 9 -19 0
1 2 -4 -5 -6 -8 -9 10 -20 0
-4 -5 -6 -7 -8 -9 10 28 0
1 2 -4 -5 -6 -8 -9 -10 20 0
-4 -6 -7 -8 -9 -10 -28 0
1 3 -6 -7 -8 -9 19 0
-4 -5 -6 -7 -8 -9 -26 0
-4 -5 -6 -7 -8 -9 -27 0
2 -4 -5 -15 0
2 3 -4 14 0
1 2 3 -13 0
1 2 4 5 6 8 9 10 -20 0
1 2 -3 5 6 7 9 10 21 0
1 2 4 5 7 10 -23 0
1 2 4 5 6 8 9 -10 20 0
1 2 -3 4 5 6 8 -10 -21 0
1 2 -3 4 5 -10 23 0
1 2 -3 4 5 6 7 9 -22 0
4 5 9 -27 0
1 2 -3 4 5 7 8 -9 -21 0
1 2 -3 4 7 -9 22 0
-3 5 6 7 8 -18 0
4 5 8 -26 0
-3 5 6 7 -8 18 0
1 2 -3 5 6 7 -8 21 0
-3 4 6 7 -17 0
1 2 4 5 6 -7 10 -20 0
1 2 -3 -7 8 10 21 0
1 4 5 8 10 -23 0
1 2 4 5 6 -7 -10 20 0
1 4 5 6 -7 9 19 0
1 2 -3 4 8 9 -22 0
1 4 5 6 -7 -9 -19 0
2 -3 4 8 -9 22 0
4 5 -7 8 18 0
2 -3 -7 -8 10 -21 0
-3 4 -7 -8 9 10 22 0
4 5 9 10 -23 0
1 2 -3 4 6 -8 -10 21 0
1 2 -3 4 6 9 -10 -22 0
-3 4 -7 -8 -9 10 -22 0
1 2 -3 4 6 -9 -10 22 0
1 2 -3 4 5 -7 -8 -9 23 0
4 5 -7 -8 -18 0
-3 4 6 -7 17 0
1 2 -3 6 -16 0
1 2 -3 -6 8 9 10 21 0
1 2 -3 7 8 -10 -21 0
2 -3 -6 -8 9 10 -21 0
1 2 -3 4 -6 7 -8 10 22 0
1 2 -3 7 -8 -10 21 0
2 -3 4 7 9 -10 -22 0
1 2 -3 4 7 -8 -9 21 0
1 2 -3 -6 -7 8 9 21 0
1 2 -3 5 8 -9 -10 -21 0
2 -3 -6 -7 -8 9 -21 0
-3 4 -6 -7 -8 9 22 0
1 2 -3 5 -8 -9 -10 21 0
1 2 -3 4 -6 -7 -8 -10 22 0
1 2 -3 -6 16 0
1 2 -3 5 15 0
1 2 -3 -5 7 9 10 -20 0
1 2 -3 -5 8 9 10 21 0
1 2 4 -5 7 10 23 0
1 2 4 6 7 10 -24 0
1 2 -3 -5 7 9 -10 20 0
1 2 -3 4 -5 -10 -23 0
-3 -5 6 -10 24 0
1 -3 -5 6 7 9 -19 0
1 -3 -5 6 7 -9 19 0
1 2 -3 6 7 8 -9 -21 0
-3 -5 6 7 8 18 0
2 -3 -5 -8 9 10 -21 0
1 2 -3 4 -5 7 -8 10 22 0
-3 -5 6 7 -8 -18 0
2 4 -5 8 10 23 0
1 4 6 8 10 -24 0
1 2 -3 -5 -7 8 9 21 0
1 2 -3 6 8 -9 -10 -21 0
4 -5 -7 8 -18 0
1 2 4 6 -7 -8 10 -20 0
-3 4 -5 -8 9 10 22 0
4 -5 9 10 23 0
4 6 9 10 -24 0
1 2 4 6 -7 -8 -10 20 0
1 4 6 -7 -8 9 19 0
1 2 -3 4 -5 -9 -10 22 0
1 4 6 -7 -8 -9 -19 0
1 2 -3 4 -5 -7 -8 -9 -23 0
-3 -5 6 -7 -8 -9 24 0
4 -5 -7 -8 18 0
1 2 -3 -5 -6 8 10 21 0
1 2 4 -6 7 10 24 0
-3 -5 -6 -10 -24 0
-3 -5 -6 7 -10 25 0
1 4 -5 -6 8 -18 0
1 4 -5 -6 -8 18 0
2 4 -6 8 10 24 0
2 4 -7 8 10 25 0
1 2 -3 -5 -6 -7 8 21 0
4 -6 9 10 24 0
4 -7 9 10 25 0
4 -8 9 10 26 0
-3 4 -5 -6 -7 -8 10 -27 0
-3 -5 -6 -7 -8 -9 10 28 0
1 2 -3 -5 -6 -7 -9 -10 21 0
-3 -5 -6 -7 -8 -9 -10 -28 0
-3 -5 -6 -7 -8 -9 -24 0
-3 -5 -6 -7 -8 -9 -25 0
-3 -5 -6 -7 -8 -9 -26 0
-3 -5 -6 -7 -8 -9 -27 0
1 2 -3 -5 -15 0
1 -3 4 14 0
1 2 -3 -4 7 8 9 10 -20 0
1 2 5 6 7 9 10 -23 0
1 2 -3 -4 7 8 9 -10 20 0
1 2 -3 5 6 9 -10 23 0
1 -3 -4 6 8 9 -19 0
1 2 -3 -4 5 6 7 9 22 0
-3 -4 5 -9 10 23 0
-3 -4 5 -9 -10 -23 0
-3 -4 6 -9 -10 24 0
1 -3 -4 6 8 -9 19 0
1 2 -3 -4 5 7 -9 -22 0
-3 -4 5 6 8 -18 0
-3 -4 5 6 -8 18 0
-3 -4 6 7 17 0
1 2 -3 -4 -7 8 9 10 20 0
2 5 8 9 10 -23 0
1 2 -3 -4 -7 8 9 -10 -20 0
1 2 -3 -4 -7 8 9 21 0
1 2 -3 -4 8 9 22 0
2 -3 -4 8 -9 -22 0
1 2 5 6 -7 -8 10 -20 0
-3 -4 -7 -8 9 10 -22 0
1 2 5 6 -7 -8 -10 20 0
1 2 -3 5 6 -8 -10 21 0
1 2 -3 -4 5 6 9 -10 22 0
1 2 -3 -4 5 6 -7 -8 9 23 0
-3 -4 -7 -8 -9 10 22 0
-3 -4 5 -7 -8 10 23 0
1 2 -3 -4 -9 -10 -22 0
-3 -4 6 -7 -17 0
1 2 -3 -4 -6 8 10 21 0
2 -3 5 7 9 -10 23 0
2 5 -6 7 9 24 0
-3 -4 -6 -9 -10 -24 0
-3 -4 -6 7 -9 -10 25 0
1 2 -3 -4 5 -6 7 -8 10 -22 0
1 2 -3 -4 7 9 -10 22 0
2 -3 -4 5 -6 7 -8 9 23 0
-3 -4 5 -6 -8 10 23 0
1 2 -3 5 7 -8 -9 21 0
2 -4 -6 7 -17 0
1 -3 5 8 9 -10 23 0
1 5 -6 8 9 24 0
1 5 -7 8 9 25 0
1 5 8 9 -26 0
5 8 10 -26 0
-3 -4 -6 -7 -9 -10 -25 0
-3 -4 -6 -7 8 -9 -10 26 0
2 5 -6 -7 8 18 0
5 9 10 -27 0
-3 -4 5 -6 -7 -8 -10 -23 0
-3 -4 -6 -7 -8 -10 -24 0
-3 -4 -6 -7 -8 -10 -25 0
-3 -4 -6 -7 -8 -10 -26 0
-3 -4 -6 -7 -8 9 -10 27 0
-3 -4 -6 -7 -8 9 -22 0
1 2 -3 -4 -8 -9 -10 21 0
1 2 -3 -4 -6 -7 -8 -10 -22 0
-3 -4 -6 -7 -8 -9 -10 -27 0
2 5 -6 -7 -8 -18 0
2 -4 -6 -7 17 0
1 2 -5 8 9 10 23 0
2 6 8 9 10 -24 0
1 2 -3 -5 7 9 -10 -23 0
1 -3 -4 -5 6 9 -19 0
-3 -4 -5 -9 10 -23 0
-3 -4 -5 -9 -10 23 0
1 -3 -4 -5 6 -9 19 0
1 2 -3 -4 6 7 -9 -22 0
-3 -4 -5 6 -9 24 0
-3 -4 -5 6 8 18 0
1 2 -3 -4 -5 6 7 -8 10 -22 0
1 2 -3 -4 -5 7 -8 9 -23 0
-3 -4 -5 -8 10 -23 0
1 2 -3 6 7 -8 -9 21 0
-3 -4 -5 6 -8 -18 0
-3 -4 -5 6 -8 24 0
1 2 -3 -4 -5 -7 9 10 20 0
1 2 -3 -4 -5 -7 9 -10 -20 0
1 -3 -5 8 9 -10 -23 0
-3 -4 -5 -7 -8 -10 23 0
2 -3 -4 -5 -7 -8 9 -21 0
-3 -4 -5 -7 -8 9 -22 0
1 2 -3 -4 -5 -7 -8 -10 -22 0
1 2 -6 8 9 10 24 0
1 2 7 8 9 10 -25 0
2 -3 -4 -5 -6 -8 10 -21 0
-3 -4 -5 -8 9 10 -22 0
-3 -4 -5 -6 -8 -9 10 22 0
-3 -4 -5 -6 -8 -24 0
-3 -4 -5 -6 7 -8 25 0
1 2 -7 8 9 10 25 0
1 2 -3 -4 -5 -6 -7 9 10 -26 0
2 -5 -6 -7 8 -18 0
1 -3 -4 -5 -7 -8 9 -19 0
-3 -4 -5 -6 -7 -8 9 27 0
1 -3 -4 -5 -7 -8 -9 19 0
2 -5 -6 -7 -8 18 0
-3 -4 -5 -6 -7 -8 -25 0
-3 -4 -5 -6 -7 -8 -26 0
1 -3 -4 -14 0
1 2 -3 13 0
1 2 -12 0
1 -2 4 5 6 8 9 10 20 0
1 -2 4 5 6 8 9 -10 -20 0
-2 3 4 5 -10 23 0
3 4 5 -10 28 0
1 3 4 5 7 8 9 -19 0
1 -2 3 4 5 6 8 9 -21 0
1 -2 3 4 6 9 -22 0
1 -2 3 4 5 7 -9 10 -20 0
1 -2 3 4 5 6 8 10 -21 0
1 -2 3 4 -9 10 22 0
1 -2 3 4 5 7 -9 -10 20 0
1 3 4 5 7 8 -9 -10 21 0
1 -2 3 4 5 7 8 -10 -22 0
1 3 4 5 7 8 -9 19 0
3 4 5 -9 27 0
1 -2 3 4 6 7 -8 10 -20 0
1 -2 3 6 -8 10 21 0
1 -2 3 4 6 7 -8 -10 20 0
1 3 4 6 7 -8 -10 -21 0
3 4 5 -8 26 0
-2 4 5 6 7 -17 0
1 -2 4 5 6 -7 10 20 0
1 -2 4 5 6 -7 -10 -20 0
1 -2 3 4 -7 -9 22 0
1 -2 3 4 5 6 -7 8 -21 0
1 -2 3 6 -7 -8 21 0
-2 4 5 6 -7 17 0
3 4 5 -7 25 0
-2 3 5 6 -16 0
3 4 5 6 -24 0
1 -2 -6 7 9 10 20 0
1 -2 -6 7 9 -10 -20 0
1 3 4 5 -6 9 -19 0
1 -2 3 7 8 9 -21 0
-2 3 4 7 9 -22 0
1 -2 3 7 8 10 -21 0
1 3 4 5 -6 -9 19 0
3 4 5 -6 8 18 0
1 -2 3 -6 7 -8 9 21 0
-2 3 4 7 -8 10 21 0
1 3 4 5 7 -8 -9 -10 -21 0
3 4 5 -6 -8 -18 0
3 4 -6 7 17 0
1 -2 -6 -7 9 10 -20 0
-2 3 4 -6 -7 8 9 10 21 0
1 -2 -6 -7 9 -10 20 0
1 -2 3 -7 8 -10 -21 0
-2 3 4 8 9 -22 0
1 -2 3 5 -7 -9 10 20 0
1 -2 3 5 -7 -9 -10 -20 0
1 -2 3 5 -7 8 -9 -21 0
-2 3 -6 -7 -8 9 10 -21 0
1 -2 3 4 -6 -7 -8 10 22 0
-2 3 4 -7 -8 -10 21 0
-2 3 4 9 -10 -22 0
1 -2 3 4 -7 -8 -9 21 0
3 4 -6 -7 -17 0
-2 3 5 -6 16 0
3 4 5 -6 24 0
1 -2 5 -15 0
3 4 5 -29 0
1 -2 -5 7 8 9 10 20 0
1 -2 -5 7 8 9 -10 -20 0
-2 3 4 -5 -10 -23 0
-2 -5 6 -10 24 0
1 -2 6 7 -9 10 -20 0
1 -2 6 7 -9 -10 20 0
1 3 6 7 8 -9 -10 21 0
1 -2 3 4 6 7 8 -10 -22 0
1 -2 -5 -7 8 9 10 -20 0
1 -2 3 -5 6 -7 9 10 21 0
1 -2 -5 -7 8 9 -10 20 0
1 -2 6 -7 -9 10 20 0
1 -2 6 -7 -9 -10 -20 0
1 -2 3 6 -7 8 -9 -21 0
1 -2 3 6 -7 -8 10 20 0
1 -2 3 6 -7 -8 -10 -20 0
1 -2 -5 -6 7 8 10 20 0
3 4 7 10 -25 0
1 -2 -5 -6 7 8 -10 -20 0
-2 -5 -6 -10 -24 0
-2 -5 -6 7 -10 25 0
1 -2 3 4 -5 -6 -9 22 0
1 -2 3 -5 -6 7 8 -21 0
1 -2 4 7 -8 -9 10 -20 0
1 -2 4 7 -8 -9 -10 20 0
1 -2 3 4 -5 -6 7 -9 -10 -21 0
1 -2 -5 -6 -7 8 10 -20 0
-2 3 -5 -6 -7 8 10 21 0
3 4 8 10 -26 0
1 -2 -5 -6 -7 8 -10 20 0
1 -2 3 -5 -6 8 -10 -21 0
1 -2 4 -7 -8 -9 10 20 0
1 -2 4 -7 -8 -9 -10 -20 0
1 -2 -5 15 0
1 -2 4 14 0
1 -2 -4 7 8 9 10 20 0
1 3 5 6 9 10 -23 0
1 -2 -4 7 8 9 -10 -20 0
1 -2 3 5 6 7 8 -10 23 0
1 -2 -4 6 8 9 -19 0
1 -2 3 -4 6 9 22 0
1 -2 3 -4 -9 10 -22 0
1 -2 3 -4 6 7 8 -10 22 0
1 -2 -4 6 8 -9 19 0
1 -2 3 -4 5 6 7 8 -9 23 0
-2 -4 5 6 8 -18 0
1 3 5 6 7 8 -24 0
1 -2 5 6 7 -8 10 -20 0
1 -2 5 6 7 -8 -10 20 0
1 3 5 6 7 -8 -10 -21 0
-2 3 5 9 -10 23 0
3 5 6 9 -24 0
-2 -4 5 -9 10 23 0
-2 -4 5 6 -8 18 0
-2 -4 5 6 7 17 0
1 -2 -4 -7 8 9 10 -20 0
1 -2 3 -4 6 -7 9 10 21 0
1 -2 -4 -7 8 9 -10 20 0
-2 -4 5 -7 -9 -10 -23 0
-2 -4 6 -7 -9 -10 24 0
1 -2 3 -4 -7 -9 -22 0
-2 -4 5 6 -7 -17 0
1 -2 -4 -6 7 8 10 20 0
3 5 7 9 10 -23 0
1 -2 -4 -6 7 8 -10 -20 0
1 -2 3 -4 7 9 22 0
3 5 7 9 -25 0
-2 -4 5 -6 -9 -10 -23 0
-2 -4 -6 -9 -10 -24 0
-2 -4 -6 7 -9 -10 25 0
1 -2 3 -4 -6 -9 -22 0
1 -2 3 -4 -6 7 8 -21 0
1 -2 5 7 -8 -9 10 -20 0
-2 3 5 7 -8 10 21 0
1 -2 5 7 -8 -9 -10 20 0
1 -2 3 -4 5 -6 7 -9 -10 -21 0
3 -4 -6 7 -17 0
-2 3 -4 5 -7 8 9 10 21 0
3 5 8 9 10 -23 0
1 -2 3 -4 -6 8 -10 -21 0
1 3 5 -6 -7 9 -19 0
-2 3 -4 8 9 22 0
-2 -4 -6 -7 -9 -10 -25 0
-2 -4 -6 -7 8 -9 -10 26 0
1 3 5 -6 -7 -9 19 0
1 -2 3 -4 5 -6 8 -9 -21 0
3 5 -6 -7 8 18 0
1 -2 3 -4 -6 -7 -8 10 -22 0
-2 3 5 -7 -8 -10 21 0
-2 3 -4 9 -10 22 0
-2 3 -4 5 -6 -7 -8 9 23 0
-2 -4 5 -6 -7 -8 10 23 0
-2 -4 -6 -7 -8 -9 -10 -26 0
1 -2 3 5 -7 -8 -9 21 0
3 5 -6 -7 -8 -18 0
3 -4 -6 -7 17 0
1 -2 -4 -5 7 9 10 20 0
1 3 -5 6 9 10 23 0
1 -2 -4 -5 7 9 -10 -20 0
1 -2 3 -5 6 7 8 -10 -23 0
1 -2 3 -4 -5 6 7 8 -9 -23 0
-2 -4 -5 6 -9 24 0
-2 3 -5 9 -10 -23 0
1 -2 3 -4 -5 6 -8 9 21 0
-2 -4 -5 -9 10 -23 0
1 3 6 7 -8 -9 -10 -21 0
3 -4 -5 7 -17 0
-2 -4 -5 -7 -9 -10 23 0
3 -4 -5 -7 17 0
1 -2 -4 -5 -6 7 10 20 0
1 3 -5 7 9 10 23 0
1 3 -6 7 9 10 24 0
1 -2 -4 -5 -6 7 -10 -20 0
-2 -4 -5 -6 -9 -10 23 0
1 -2 3 -4 -5 -6 7 -8 21 0
3 -5 8 9 10 23 0
3 -6 8 9 10 24 0
3 -7 8 9 10 25 0
-2 3 -4 -5 -6 -7 9 10 -26 0
-2 3 -4 -5 -6 -8 -10 21 0
-2 3 -4 -5 -6 -7 -8 9 -23 0
-2 -4 -5 -6 -7 -8 9 27 0
1 -2 -4 -5 -6 -8 -9 10 20 0
-2 -4 -5 -6 -7 -8 10 -23 0
1 -2 -4 -5 -6 -8 -9 -10 -20 0
1 -2 3 -4 -5 -6 -8 -9 21 0
-2 -4 -5 -6 -7 -8 -24 0
-2 -4 -5 -6 -7 -8 -25 0
-2 -4 -5 -6 -7 -8 -26 0
1 -2 -4 -14 0
-2 3 13 0
1 -2 4 5 7 -10 23 0
1 -2 -3 6 7 8 9 -19 0
1 -2 -3 4 5 6 8 9 21 0
1 -2 4 5 6 8 9 -22 0
1 -2 -3 4 5 6 8 10 21 0
1 -3 6 7 8 -9 -10 -21 0
1 -2 -3 6 7 8 -9 19 0
1 -3 4 5 8 -9 22 0
-2 -3 5 7 8 -18 0
1 -2 -3 4 6 -8 10 -21 0
-2 -3 4 -8 9 10 22 0
1 -3 5 6 7 -8 -10 21 0
1 -2 4 5 6 7 9 -10 -22 0
-2 -3 4 -8 -9 10 -22 0
1 -3 4 5 7 -9 -10 22 0
1 -2 -3 4 5 7 -8 -9 23 0
-2 -3 5 7 -8 18 0
-2 -3 4 5 7 -17 0
4 5 6 7 -24 0
-2 4 5 8 -10 23 0
1 -2 -3 4 5 6 -7 8 21 0
4 5 6 8 -24 0
-2 4 5 9 -10 23 0
-2 -3 4 -7 -8 9 22 0
4 5 6 9 -24 0
-2 -3 5 -8 -9 10 23 0
-2 -3 5 -7 -8 -9 -10 -23 0
-2 -3 6 -7 -8 -9 -10 24 0
-2 -3 4 -7 -8 -9 -22 0
1 -2 -3 4 6 -7 -8 -21 0
-2 -3 4 5 -7 17 0
-2 -3 5 6 16 0
1 -2 -3 -6 7 8 10 20 0
1 -2 -3 -6 7 8 -10 -20 0
1 -2 -3 -6 7 8 9 19 0
1 -2 4 7 8 9 -22 0
1 -2 -3 -6 7 8 -9 -19 0
1 -2 -3 -6 7 8 21 0
1 -2 -3 -6 7 -8 9 -21 0
-2 -3 4 -6 -8 9 22 0
1 -2 -3 7 -8 10 -21 0
1 -2 -3 4 -6 7 -9 -10 21 0
1 -2 -3 4 -6 7 -8 -10 22 0
1 4 5 -6 7 24 0
-2 -3 -6 -7 8 9 10 -21 0
1 -2 -3 4 5 -6 -7 8 10 22 0
1 -2 -3 -6 8 -10 21 0
1 -2 4 8 9 -10 -22 0
1 4 5 -6 -7 9 -19 0
1 -2 4 5 -7 -9 10 20 0
1 -2 4 5 -7 -9 -10 -20 0
1 4 5 -6 -7 -9 19 0
1 -2 -3 4 5 -6 8 -9 21 0
4 5 -6 8 24 0
4 5 -7 8 25 0
-2 -3 -6 -7 -8 9 10 21 0
-2 -3 -7 -8 -10 -21 0
4 5 -6 9 24 0
4 5 -7 9 25 0
4 5 -8 9 26 0
-2 -3 -6 -7 -8 -9 -10 -24 0
1 -2 -3 4 5 -6 -8 -9 -10 -25 0
-2 -3 4 5 -6 -7 -9 -10 -26 0
-2 -3 4 5 -6 -7 -8 -10 -27 0
-2 -3 -6 -7 -8 -9 -10 29 0
1 -2 -3 -7 -8 -9 -21 0
-2 -3 5 -6 -7 -8 -9 -28 0
-2 -3 5 -6 -16 0
1 -2 -3 -5 7 9 10 20 0
1 4 -5 6 8 10 23 0
1 -2 -3 -5 7 9 -10 -20 0
1 -2 4 -5 7 -10 -23 0
1 -2 -3 -5 7 8 9 21 0
1 -2 -3 -5 7 8 10 21 0
1 -3 4 6 8 -9 22 0
1 -2 -3 4 -5 6 -8 9 -21 0
-2 -3 4 -5 -8 9 22 0
1 -3 4 -5 7 -8 -9 -10 21 0
1 -2 -3 4 -5 7 -8 -10 22 0
1 -2 -3 4 -5 7 -8 -9 -23 0
-2 -3 -5 6 -8 -9 24 0
1 -2 -3 4 -5 6 -7 9 10 -21 0
1 -2 -3 4 -5 6 -7 8 10 22 0
1 -2 -3 -5 -7 8 -10 21 0
-2 4 -5 8 -10 -23 0
1 -2 -3 6 -7 8 -9 21 0
1 -2 4 6 -7 -8 10 20 0
1 -2 4 6 -7 -8 -10 -20 0
-2 4 -5 9 -10 -23 0
-2 -3 -5 -8 -9 10 -23 0
-2 -3 -5 -7 -8 -9 -10 23 0
1 -3 -5 6 -16 0
4 -5 7 8 10 23 0
4 -6 7 8 10 24 0
4 7 8 10 -25 0
1 -3 4 7 8 -9 22 0
4 7 9 10 -25 0
1 -2 -3 -5 7 -8 9 -21 0
-2 -3 -5 -6 -8 -9 -24 0
-2 -3 -5 -6 7 -8 -9 25 0
1 4 -5 -6 7 17 0
-2 -3 -5 -6 -7 8 10 -21 0
-2 -3 4 -5 -7 9 10 22 0
4 8 9 10 -26 0
-2 -3 4 -5 -6 -7 -9 10 -22 0
1 -3 4 8 -9 -10 22 0
-2 -3 4 -5 -6 -7 8 -9 -23 0
-2 -3 -5 -6 -7 -9 -24 0
-2 -3 -5 -6 -7 -9 -25 0
-2 -3 -5 -6 -7 8 -9 26 0
-2 -3 -5 -6 -7 -9 10 -23 0
-2 -3 -6 -7 -8 -9 -10 -28 0
1 4 -5 -6 -7 -17 0
1 -3 -5 -6 16 0
1 5 7 8 9 10 -23 0
1 -2 5 6 7 9 -10 23 0
1 -2 -3 -4 7 8 9 21 0
1 -2 -4 7 8 9 22 0
1 5 6 7 9 -24 0
1 -2 -3 -4 7 8 10 21 0
1 -3 -4 6 8 -9 -22 0
-2 -3 -4 5 8 -18 0
1 -2 -3 5 6 -8 10 -21 0
-2 -3 -4 -8 9 10 -22 0
1 -2 -4 5 6 7 9 -10 22 0
1 -2 -3 -4 5 6 7 -8 9 23 0
-2 -3 -4 -8 -9 10 22 0
-2 -3 -4 5 -8 10 23 0
1 -3 -4 5 7 -9 -10 -22 0
-2 -3 -4 5 -8 18 0
-2 -3 -4 5 7 17 0
1 -2 -3 -4 5 6 -7 9 10 -21 0
1 -2 -3 -4 6 -7 8 10 -22 0
1 -2 -3 -4 -7 8 -10 21 0
1 -2 -4 8 9 -10 22 0
1 -2 -3 -4 5 -7 8 9 23 0
5 6 8 9 -24 0
-2 -3 -4 5 -7 10 23 0
1 -2 5 6 -7 -8 10 20 0
1 -2 5 6 -7 -8 -10 -20 0
-2 -3 -4 5 -7 -8 -10 -23 0
-2 -3 -4 6 -7 -8 -10 24 0
-2 -3 -4 -7 -8 9 -22 0
-2 -3 -4 -7 -8 -9 22 0
1 -2 -3 5 6 -7 -8 -21 0
-2 -3 -4 5 -7 -17 0
1 -2 5 8 9 -10 23 0
1 -2 -3 -4 -6 8 9 19 0
5 7 8 9 -25 0
1 -2 -3 -4 -6 8 -9 -19 0
1 -3 -4 7 8 -9 -22 0
-2 -3 -4 5 -6 -8 -10 -23 0
-2 -3 -4 -6 -8 -10 -24 0
-2 -3 -4 -6 7 -8 -10 25 0
-2 -3 -4 -6 -8 9 -22 0
1 -2 -3 5 -6 7 -9 -10 21 0
1 -2 -3 -4 5 -6 7 -8 -10 -22 0
1 -2 -3 -4 -6 -7 8 10 -20 0
-2 -3 -4 -6 -7 8 10 -21 0
-2 -3 -4 -7 9 10 -22 0
1 -2 -3 -4 -6 -7 8 -10 20 0
-2 -3 -4 -6 -7 -9 10 22 0
1 -3 -4 8 -9 -10 -22 0
1 -2 5 -7 -8 -9 10 20 0
1 -2 5 -7 -8 -9 -10 -20 0
1 -5 7 8 9 10 23 0
1 6 7 8 9 10 -24 0
1 -2 -5 8 9 -10 -23 0
-2 -3 -4 -5 -8 -10 23 0
-2 -3 -4 -5 -8 9 -22 0
1 -3 -4 6 7 -8 -9 -10 21 0
1 -2 -3 -4 -5 6 7 -8 -10 -22 0
1 -2 -3 -4 -5 -7 9 10 -20 0
-2 -3 -4 -5 -7 8 9 10 -21 0
1 -2 -3 -4 -5 -7 9 -10 20 0
1 -2 -3 -4 -5 -7 8 9 -23 0
-2 -3 -4 -5 -7 10 -23 0
-2 -3 -4 -5 -7 -8 9 10 21 0
-2 -3 -4 -5 6 -7 24 0
1 -6 7 8 9 10 24 0
1 -2 -3 -4 -5 -6 8 9 10 -25 0
-2 -3 -4 -5 -6 -8 -9 22 0
1 -2 -3 -4 -5 -6 7 -8 -21 0
1 -4 -5 -6 7 -17 0
-2 -3 -4 -6 -7 8 -18 0
-2 -3 -4 -5 -6 -7 8 26 0
-2 -3 -4 -5 -6 -8 -10 -21 0
1 -2 -3 -4 -5 -6 -8 -9 -21 0
-2 -3 -4 -6 -7 -8 18 0
1 -4 -5 -6 -7 17 0
-2 -3 -4 -5 -6 -7 -24 0
-2 -3 -4 -5 -6 -7 -25 0
-2 -3 -13 0
1 -2 12 0
1 -11 0
-1 2 3 4 5 7 8 10 -20 0
-1 2 3 5 8 10 -21 0
-1 2 3 4 9 10 -22 0
2 3 4 10 -28 0
-1 2 3 4 5 7 8 -10 20 0
2 3 4 5 7 8 -10 21 0
2 3 4 5 7 8 9 -10 22 0
-1 3 4 5 7 8 9 19 0
-1 2 3 4 -9 10 22 0
2 3 4 5 10 -23 0
-1 3 4 5 -9 -10 23 0
-1 3 4 5 7 8 -9 -19 0
2 3 4 6 7 8 -18 0
-1 2 3 4 5 7 9 10 -20 0
-1 2 3 -8 9 10 21 0
-1 2 3 4 5 7 9 -10 20 0
2 3 4 7 -8 -10 -21 0
-1 3 4 5 -8 -10 23 0
-1 2 3 4 6 -8 9 -19 0
2 3 4 6 7 -8 -9 10 20 0
2 3 4 6 7 -8 -9 -10 -20 0
-1 2 3 4 6 -8 -9 19 0
2 3 4 6 7 -8 -9 -21 0
2 3 4 -8 -9 22 0
2 3 4 6 7 -8 18 0
2 4 5 7 -25 0
-1 2 5 -7 9 10 20 0
-1 2 5 -7 9 -10 -20 0
-1 3 4 5 -7 -10 23 0
-1 2 3 5 6 -7 9 -19 0
-1 2 3 5 -7 8 9 -21 0
-1 2 3 4 -7 9 -22 0
2 3 5 6 -7 -9 10 -20 0
2 3 5 6 -7 -9 -10 20 0
2 3 5 6 8 -9 -10 21 0
-1 2 3 4 5 6 -7 8 -10 -22 0
-1 2 3 5 6 -7 -9 19 0
-1 2 3 -7 -8 9 21 0
2 3 5 6 -8 -9 -10 -21 0
-1 3 4 5 6 -16 0
-1 2 3 4 5 -6 7 10 -20 0
-1 2 3 4 5 -6 7 -10 20 0
-1 3 4 5 -6 9 19 0
-1 3 4 5 -6 -9 -19 0
-1 2 3 -6 -8 10 21 0
-1 2 5 -6 -7 10 20 0
-1 2 5 -6 -7 -10 -20 0
-1 2 3 4 -6 -7 -9 22 0
-1 2 3 5 -6 -7 8 -21 0
-1 2 3 -6 -7 -8 21 0
-1 3 4 5 -6 16 0
-1 2 4 5 -15 0
-1 2 6 7 8 10 -20 0
-1 2 3 6 8 10 -21 0
-1 2 6 7 8 -10 20 0
2 3 6 7 8 -10 21 0
2 3 4 6 7 8 9 -10 22 0
-1 -5 6 8 9 19 0
2 3 4 -5 6 7 8 9 23 0
2 3 4 -5 10 23 0
-1 3 4 -5 -9 -10 -23 0
-1 -5 6 8 -9 -19 0
2 3 4 -5 8 -18 0
-1 2 6 7 9 10 -20 0
-1 2 6 7 9 -10 20 0
-1 3 4 -5 -8 -10 -23 0
2 3 4 -5 -8 18 0
2 3 4 -5 7 17 0
-1 2 -5 6 -7 8 10 20 0
-1 2 -5 6 -7 8 -10 -20 0
-1 3 4 -5 -7 -10 -23 0
-1 2 3 4 -5 -7 -9 22 0
-1 2 3 -5 6 -7 8 -21 0
-1 2 3 6 -7 9 10 20 0
-1 2 3 6 -7 9 -10 -20 0
2 3 4 6 -7 -8 -9 10 -20 0
2 3 4 6 -7 -8 -9 -10 20 0
-1 2 3 -5 6 -7 -9 -10 -21 0
2 3 4 -5 -7 -17 0
2 3 -5 6 16 0
-1 2 3 -5 -6 7 8 9 10 20 0
2 3 4 -6 10 24 0
-1 2 3 -5 -6 7 8 9 -10 -20 0
-1 3 4 -5 -6 -10 -23 0
-1 -5 -6 -10 -24 0
-1 -5 -6 7 -10 25 0
-1 -5 -6 8 9 -19 0
-1 2 3 -5 -6 7 8 9 -21 0
-1 2 3 4 -5 -6 9 -22 0
-1 2 -6 7 -9 10 -20 0
-1 2 3 7 8 10 -21 0
-1 2 -6 7 -9 -10 20 0
2 3 7 8 -9 -10 21 0
-1 2 3 4 -5 -6 7 8 -10 -22 0
-1 -5 -6 8 -9 19 0
-1 2 4 -6 7 -8 10 -20 0
-1 2 4 -6 7 -8 -10 20 0
-1 2 4 -6 -8 9 19 0
-1 2 4 -6 -8 -9 -19 0
-1 2 -5 -6 -7 8 9 10 -20 0
-1 2 3 -5 -6 -7 9 10 21 0
2 3 4 -7 10 25 0
-1 2 -5 -6 -7 8 9 -10 20 0
-1 2 3 -5 -7 8 -10 -21 0
-1 2 3 -6 -7 -9 10 20 0
-1 2 3 -6 -7 -9 -10 -20 0
-1 2 3 -5 -7 8 -9 -21 0
-1 2 3 -6 -7 -8 10 20 0
2 3 4 -8 10 26 0
2 3 4 9 10 -27 0
-1 2 3 -6 -7 -8 -10 -20 0
2 3 4 -9 10 27 0
2 3 4 -5 -6 -7 -8 -9 -28 0
2 3 -5 -6 -16 0
-1 2 4 -5 15 0
-1 4 -14 0
2 3 -4 6 7 8 9 -10 -22 0
2 3 -4 5 6 8 -10 23 0
-1 -4 6 7 8 9 19 0
-1 2 3 -4 -9 10 -22 0
2 3 -4 5 6 8 -9 -10 22 0
-1 -4 6 7 8 -9 -19 0
-1 2 3 -4 5 6 8 -9 23 0
2 3 5 7 -8 -10 -21 0
-1 5 6 -8 9 -19 0
2 5 6 7 -8 -9 10 20 0
-1 -4 5 -9 10 23 0
2 5 6 7 -8 -9 -10 -20 0
-1 5 6 -8 -9 19 0
2 3 5 6 7 -8 -9 -21 0
2 3 -4 -8 -9 -22 0
-1 2 3 -4 -7 9 22 0
-1 2 3 -4 5 6 -7 8 -10 22 0
-1 2 -4 5 -6 8 9 10 20 0
-1 2 -4 5 -6 8 9 -10 -20 0
2 3 -4 5 7 8 -10 23 0
-1 -4 -6 7 8 9 -19 0
-1 2 3 -4 5 -6 8 9 -21 0
-1 2 3 -4 -6 9 22 0
-1 2 3 -4 -6 7 8 -10 22 0
-1 -4 -6 7 8 -9 19 0
-1 2 3 -4 5 7 8 -9 23 0
2 3 5 -6 7 8 24 0
-1 2 5 -6 7 -8 10 -20 0
-1 2 5 -6 7 -8 -10 20 0
-1 5 -6 -8 9 19 0
-1 5 -6 -8 -9 -19 0
-1 2 5 -6 -7 9 19 0
2 5 8 9 -26 0
-1 -4 5 -6 -7 -9 -10 -23 0
-1 -4 -6 -7 -9 -10 -24 0
-1 -4 -6 -7 -9 -10 -25 0
-1 -4 -6 -7 8 -9 -10 26 0
-1 2 5 -6 -7 -9 -19 0
-1 2 3 -4 -6 -7 -9 -22 0
-1 -4 -6 -7 -8 -9 -10 -26 0
-1 2 -4 -5 6 7 10 -20 0
2 3 6 9 10 -24 0
-1 2 -4 -5 6 7 -10 20 0
-1 -4 -5 6 7 9 19 0
2 3 -4 -5 7 8 -9 -10 22 0
-1 -4 -5 6 7 -9 -19 0
-1 2 3 -4 -5 7 8 -9 -23 0
-1 -4 -5 6 -9 24 0
-1 2 3 -4 -5 -8 10 21 0
2 3 6 7 -8 -10 -21 0
-1 -4 -5 -9 10 -23 0
-1 -4 -5 -7 -9 -10 23 0
-1 2 3 -4 -5 -7 -9 -22 0
-1 3 6 -7 -8 9 -19 0
-1 2 3 -4 -5 6 -8 -9 10 -20 0
-1 2 3 -4 -5 6 -8 -9 -10 20 0
-1 3 6 -7 -8 -9 19 0
-1 2 -4 -5 -6 7 9 10 20 0
2 3 7 9 10 -25 0
-1 2 -4 -5 -6 7 9 -10 -20 0
-1 -4 -5 -6 7 9 -19 0
-1 2 3 -4 -6 7 8 9 -21 0
-1 2 -4 -5 7 -9 10 -20 0
-1 2 -4 -5 7 -9 -10 20 0
-1 -4 -5 -6 7 -9 19 0
-1 2 3 -4 -5 -6 -8 9 21 0
2 3 7 -8 -9 -10 -21 0
-1 3 -6 -7 -8 9 19 0
-1 3 -6 -7 -8 -9 -19 0
-1 -4 14 0
-1 3 13 0
-1 2 -3 5 8 10 21 0
2 4 5 6 7 10 -23 0
2 -3 6 7 8 -10 -21 0
2 -3 4 5 6 -10 23 0
-1 -3 6 7 8 9 19 0
2 -3 4 5 8 9 -22 0
-1 -3 6 7 8 -9 -19 0
2 -3 4 5 6 7 -9 22 0
-1 -3 5 7 8 -18 0
-1 2 -3 -8 9 10 -21 0
-1 2 -3 4 5 6 7 -8 10 22 0
2 -3 4 7 -8 -10 21 0
2 -3 5 6 7 -8 -9 21 0
-1 -3 5 7 -8 18 0
-1 -3 4 5 7 -17 0
2 4 5 8 10 -23 0
-1 4 5 6 -7 9 -19 0
-1 2 -3 5 -7 8 9 21 0
2 4 5 6 -7 -9 10 -20 0
2 4 5 6 -7 -9 -10 20 0
2 -3 4 5 6 8 -9 -10 -21 0
-1 4 5 6 -7 -9 19 0
-1 2 -3 -7 -8 9 -21 0
-1 -3 4 -7 -8 9 22 0
2 -3 4 5 6 -8 -9 -10 21 0
-1 2 -3 4 6 -7 -8 -10 22 0
2 -3 4 5 6 -7 -8 -9 23 0
-1 -3 4 5 -7 17 0
-1 -3 4 5 6 16 0
-1 2 -3 5 -6 8 9 10 20 0
-1 2 -3 5 -6 8 9 -10 -20 0
2 -3 4 5 7 -10 23 0
-1 -3 -6 7 8 9 -19 0
-1 2 -3 5 -6 8 9 21 0
2 -3 7 8 -9 -10 -21 0
-1 -3 -6 7 8 -9 19 0
-1 2 -3 -6 -8 10 -21 0
-1 -3 4 -6 -8 9 10 22 0
-1 -3 4 -6 -8 -9 10 -22 0
2 -3 4 7 -9 -10 22 0
-1 2 -3 4 5 -6 7 -8 -9 23 0
2 4 5 -6 7 24 0
-1 -3 4 5 8 -10 23 0
-1 2 -3 5 -6 -7 8 21 0
-1 -3 4 5 9 -10 23 0
-1 -3 5 -6 -8 -9 10 23 0
-1 -3 5 -6 -7 -8 -9 -10 -23 0
-1 2 -3 4 5 -7 -8 -9 -10 -24 0
-1 2 -3 4 5 -6 -8 -9 -10 -25 0
-1 -3 4 5 -6 -7 -9 -10 -26 0
-1 -3 4 5 -6 -7 -8 -10 -27 0
-1 -3 -6 -7 -8 -9 -10 29 0
-1 -3 4 -6 -7 -8 -9 -22 0
-1 -3 5 -6 -7 -8 -9 -28 0
-1 2 -3 -6 -7 -8 -21 0
-1 -3 4 5 -6 -16 0
-1 2 -3 -5 6 7 10 -20 0
-1 2 -3 6 8 10 21 0
2 4 6 8 10 -24 0
-1 2 -3 -5 6 7 -10 20 0
2 -3 4 -5 6 -10 -23 0
-1 -3 -5 6 7 9 19 0
2 -3 4 6 8 9 -22 0
-1 -3 -5 6 7 -9 -19 0
-1 2 -3 -5 -8 10 -21 0
-1 -3 4 -5 -8 -9 10 -22 0
2 -3 4 -5 6 -9 -10 22 0
-1 2 -3 4 -5 6 -8 -9 -23 0
-1 -3 -5 6 -8 -9 24 0
-1 2 -3 -5 6 -7 8 21 0
-1 2 4 6 -7 9 10 20 0
-1 2 4 6 -7 9 -10 -20 0
-1 4 6 -7 -8 9 -19 0
-1 2 -3 4 -5 6 -8 -9 10 -20 0
-1 2 -3 4 -5 6 -8 -9 -10 20 0
-1 2 -3 4 -5 6 -7 -9 -10 21 0
-1 4 6 -7 -8 -9 19 0
2 -3 -5 6 -16 0
-1 2 -3 4 -6 7 8 9 10 20 0
-1 2 -3 4 -6 7 8 9 -10 -20 0
2 -3 4 -5 7 -10 -23 0
-1 2 -3 -6 7 8 9 21 0
2 -3 4 7 8 9 -22 0
-1 2 -3 -5 7 -9 10 -20 0
-1 2 -3 7 8 10 21 0
-1 2 -3 -5 7 -9 -10 20 0
2 4 -5 -6 8 -18 0
-1 2 -3 4 -5 7 -8 10 -20 0
-1 2 -3 4 -5 7 -8 -10 20 0
-1 2 -3 4 -5 7 -8 -9 -23 0
-1 -3 -5 -6 -8 -9 -24 0
-1 -3 -5 -6 7 -8 -9 25 0
2 4 -5 -6 -8 18 0
2 4 -5 -6 7 17 0
-1 2 -3 -5 -6 -7 9 10 -21 0
-1 2 -3 4 -5 -6 -7 8 10 22 0
-1 2 -3 -5 -7 8 -10 21 0
2 -3 4 8 9 -10 -22 0
-1 -3 4 -5 8 -10 -23 0
-1 2 4 -6 -7 -9 10 20 0
-1 2 4 -6 -7 -9 -10 -20 0
-1 2 -3 -5 -7 8 -9 21 0
-1 2 4 -6 -7 -8 10 20 0
-1 2 4 -6 -7 -8 -10 -20 0
-1 -3 4 -5 9 -10 -23 0
-1 -3 -5 -8 -9 10 -23 0
-1 -3 -5 -6 -7 -8 -9 -10 23 0
-1 -3 -6 -7 -8 -9 -10 -28 0
2 4 -5 -6 -7 -17 0
2 -3 -5 -6 16 0
-1 -3 -4 6 8 9 19 0
2 -3 -4 5 8 9 22 0
2 5 6 7 9 -24 0
-1 -3 -4 6 8 -9 -19 0
2 -3 -4 5 6 7 -9 -22 0
-1 2 -3 -4 5 6 7 -8 10 -22 0
2 -3 5 7 -8 -10 21 0
2 -3 -4 5 7 9 -10 22 0
-1 2 -3 -4 5 7 -8 9 23 0
-1 -3 -4 5 -8 10 23 0
-1 2 -3 -4 5 -7 8 10 20 0
-1 2 -3 -4 5 -7 8 -10 -20 0
2 -3 5 8 9 -10 23 0
-1 2 -3 -4 5 -7 8 21 0
-1 -3 -4 5 -7 -8 -10 -23 0
-1 -3 -4 6 -7 -8 -10 24 0
-1 -3 -4 -7 -8 9 -22 0
2 5 6 -7 -8 -9 10 -20 0
2 5 6 -7 -8 -9 -10 20 0
-1 2 -3 -4 5 6 -7 -9 -10 21 0
-1 2 -3 -4 5 6 -7 -8 -10 -22 0
2 -3 -4 6 -16 0
-1 -3 -4 -8 9 10 -22 0
-1 -3 -4 -6 -8 -9 10 22 0
2 -3 -4 5 7 -9 -10 -22 0
2 5 -6 8 9 24 0
2 5 -7 8 9 25 0
-1 -3 -4 -6 -7 -8 -9 22 0
2 -3 -4 -6 16 0
2 -5 6 8 9 10 23 0
2 -3 -5 6 7 9 -10 -23 0
-1 -3 -4 -5 6 9 19 0
2 -3 -4 6 8 9 22 0
-1 -3 -4 -5 6 -9 -19 0
2 -3 6 7 -8 -10 21 0
2 -3 -4 6 7 9 -10 22 0
2 -3 -4 -5 6 7 -8 9 -23 0
-1 -3 -4 -5 -8 -9 10 22 0
2 -3 -4 6 7 -9 -10 -22 0
-1 2 -3 -4 -5 6 -7 10 20 0
-1 2 -3 -4 -5 6 -7 -10 -20 0
2 -3 -5 8 9 -10 -23 0
-1 2 -3 -4 6 -7 8 21 0
-1 -3 -4 -5 -7 -8 -9 22 0
-1 2 -3 -4 -5 -7 -8 -21 0
2 -5 7 8 9 10 23 0
2 -6 7 8 9 10 24 0
-1 2 -3 -4 -5 -6 8 9 10 -25 0
2 -3 -4 7 8 9 22 0
-1 -3 -4 -5 -6 -8 -10 23 0
-1 2 -3 -4 -5 -6 -8 9 -21 0
-1 -3 -4 -5 -6 -8 9 -22 0
2 -3 7 -8 -9 -10 21 0
-1 2 -3 -4 -5 -6 7 -8 -10 -22 0
-1 2 -3 -4 -5 -6 -7 8 10 -22 0
-1 2 -3 -4 -7 8 -10 21 0
2 -3 -4 8 9 -10 22 0
-1 2 -3 -4 -5 -6 -7 8 9 -23 0
-1 2 -3 -4 -5 -7 -9 10 20 0
-1 -3 -4 -5 -6 -7 10 -23 0
-1 2 -3 -4 -5 -7 -9 -10 -20 0
-1 2 -3 -4 -7 8 -9 21 0
-1 -3 -4 -5 -6 -7 8 26 0
-1 2 -3 -4 -5 -7 -8 10 20 0
-1 2 -3 -4 -5 -7 -8 -10 -20 0
-1 -3 -4 -5 -7 -8 9 19 0
-1 -3 -4 -5 -7 -8 -9 -19 0
-1 -3 -4 -5 -6 -7 -24 0
-1 -3 -4 -5 -6 -7 -25 0
-1 -3 -13 0
-1 2 12 0
-1 -2 3 4 5 7 8 10 20 0
3 4 5 6 10 -23 0
-1 -2 3 4 5 7 8 -10 -20 0
-1 -2 3 4 6 -9 22 0
-1 -2 5 6 7 8 -18 0
-1 -2 3 4 5 7 8 -21 0
-1 -2 3 4 5 7 9 10 20 0
-1 -2 3 4 5 7 9 -10 -20 0
-1 -2 3 4 7 -8 9 21 0
-2 5 6 7 -8 -9 10 -20 0
-2 5 6 7 -8 -9 -10 20 0
-1 -2 3 5 6 7 -9 -10 -21 0
-1 -2 5 6 7 -8 18 0
-1 -2 4 6 7 -17 0
3 4 5 7 -25 0
-1 -2 3 5 -7 9 10 -20 0
-1 -2 3 -7 8 9 10 21 0
-1 -2 3 5 -7 9 -10 20 0
-1 -2 3 5 8 -10 -21 0
-2 4 5 6 -7 -9 10 20 0
-2 4 5 6 -7 -9 -10 -20 0
-1 -2 3 4 5 6 8 -9 -21 0
-1 -2 3 -7 -8 9 10 -21 0
-1 -2 3 4 6 -7 -8 10 22 0
-1 -2 3 -7 -8 -10 21 0
-2 3 6 -7 -8 -9 21 0
-1 -2 4 6 -7 17 0
-1 -2 3 4 6 -16 0
-1 -2 3 4 5 -6 7 10 20 0
3 4 5 7 10 -23 0
-1 -2 3 4 5 -6 7 -10 -20 0
-1 -2 3 4 7 -9 22 0
-1 -2 3 4 -6 7 -8 21 0
-1 -2 3 5 -6 -7 10 -20 0
-1 -2 3 -6 -7 8 10 21 0
3 4 5 8 10 -23 0
-1 -2 3 5 -6 -7 -10 20 0
-1 -2 3 4 8 -9 22 0
-1 -2 3 -6 -7 -8 10 -21 0
-1 -2 4 -7 -8 9 10 22 0
-1 -2 3 -6 -8 -10 21 0
-1 -2 4 -6 -7 -8 -9 10 -22 0
-1 -2 3 4 -9 -10 22 0
-1 -2 3 4 5 -6 -7 -8 -9 23 0
-1 -2 3 4 -6 16 0
-1 -2 4 5 15 0
-1 -2 -5 6 7 10 20 0
3 4 -5 6 10 23 0
-1 -2 -5 6 7 -10 -20 0
-1 -2 -5 6 7 9 19 0
-1 -2 -5 6 7 -9 -19 0
-1 -2 -5 6 7 8 18 0
-1 -2 3 6 7 8 -21 0
-1 -2 -5 6 7 -8 -18 0
-1 -2 3 4 -5 7 -8 21 0
-1 -2 -5 6 -7 8 10 -20 0
-1 -2 3 -5 -7 8 10 21 0
-1 -2 -5 6 -7 8 -10 20 0
-1 -2 3 6 8 -10 -21 0
-1 -2 6 -7 9 10 -20 0
-1 -2 6 -7 9 -10 20 0
-1 -2 3 -5 -8 -10 21 0
-1 -2 3 -5 6 -8 -9 10 20 0
-1 -2 3 -5 6 -8 -9 -10 -20 0
-1 -2 3 -5 6 -8 -9 21 0
-1 -2 -5 -6 7 8 9 10 -20 0
-1 -2 3 4 -5 -6 7 9 10 21 0
3 4 -5 7 10 23 0
3 4 -6 7 10 24 0
-1 -2 -5 -6 7 8 9 -10 20 0
-1 -2 3 7 8 -10 -21 0
-1 -2 -5 7 -9 10 20 0
-1 -2 -5 7 -9 -10 -20 0
-1 -2 3 7 8 -9 -21 0
3 4 -5 -6 8 -18 0
-1 -2 3 4 -5 7 -8 10 20 0
-1 -2 3 4 -5 7 -8 -10 -20 0
-1 3 4 -6 -8 9 19 0
-1 3 4 -6 -8 -9 -19 0
3 4 -5 -6 -8 18 0
-1 -2 -5 -6 -7 8 9 10 20 0
3 4 -5 8 10 23 0
3 4 -6 8 10 24 0
3 4 -7 8 10 25 0
-1 -2 -5 -6 -7 8 9 -10 -20 0
-1 -2 3 -5 -6 -7 8 9 21 0
-1 -2 -6 -7 -9 10 -20 0
-1 -2 -6 -7 -9 -10 20 0
-1 -2 3 8 -9 -10 -21 0
-1 -2 -6 -7 -8 10 -20 0
-1 -2 4 -5 -6 -7 -8 10 -27 0
-1 -2 -6 -7 -8 -10 20 0
-1 -2 -5 -6 -7 -8 -9 10 28 0
-1 -2 -5 -6 -7 -8 -9 -10 -28 0
-1 -2 3 4 -5 -6 -7 -8 -9 -23 0
-1 -2 -5 -6 -7 -8 -9 -24 0
-1 -2 -5 -6 -7 -8 -9 -25 0
-1 -2 -5 -6 -7 -8 -9 -26 0
-1 -2 -5 -6 -7 -8 -9 -27 0
-1 -2 4 -5 -15 0
-1 -2 -4 6 7 8 10 20 0
-1 -2 -4 6 7 8 -10 -20 0
-1 -2 -4 6 8 9 19 0
-2 3 -4 5 7 9 22 0
-1 -2 -4 5 -9 -10 -23 0
-1 -2 -4 6 -9 -10 24 0
-1 -2 -4 6 8 -9 -19 0
-1 -2 3 -4 6 -9 -22 0
-1 -2 -4 6 7 9 10 20 0
-1 -2 -4 6 7 9 -10 -20 0
-1 -2 3 5 7 -8 9 21 0
-1 -2 3 -4 5 -7 8 10 -20 0
-1 -2 3 -4 -7 8 10 21 0
-1 -2 3 -4 5 -7 8 -10 20 0
-1 -2 3 -4 6 -7 -8 10 -22 0
-1 -2 3 -4 5 -7 -8 9 23 0
-2 3 -4 6 -7 -8 -9 10 20 0
-1 -2 -4 5 -7 -8 10 23 0
-2 3 -4 6 -7 -8 -9 -10 -20 0
-1 -2 3 -4 5 -6 8 9 10 -20 0
-1 -2 3 -4 5 -6 7 9 10 21 0
-1 -2 3 -4 5 -6 8 9 -10 20 0
-1 -2 -4 -6 7 -9 10 20 0
-1 -2 -4 -6 7 -9 -10 -20 0
-1 -2 3 -4 7 -9 -22 0
-1 -2 5 -6 7 -8 10 20 0
-1 -2 5 -6 7 -8 -10 -20 0
-1 -2 3 5 -6 7 -8 21 0
-1 3 5 -6 -7 9 19 0
3 5 8 9 -26 0
-1 3 5 -6 -7 -9 -19 0
-1 -2 3 -4 8 -9 -22 0
-1 -2 -4 5 -7 -8 9 10 -22 0
-1 -2 -4 -6 -7 -8 -9 10 22 0
-1 -2 3 -4 -9 -10 -22 0
-2 -4 5 -15 0
3 -5 6 7 9 10 23 0
3 6 7 9 10 -24 0
-2 3 -4 6 7 9 22 0
-1 -2 -4 -5 -9 -10 23 0
-1 -2 3 -5 6 7 -8 21 0
-1 -2 -4 6 -7 8 10 -20 0
3 6 8 9 10 -24 0
-1 -2 -4 6 -7 8 -10 20 0
-1 -2 3 -4 -5 -7 -8 9 -23 0
-1 -2 -4 -5 -7 -8 10 -23 0
-1 -2 -4 -5 6 -7 -8 24 0
3 -4 -5 6 16 0
-1 -2 -4 -5 -6 7 9 10 -20 0
-1 -2 3 -4 -5 -6 8 9 10 21 0
3 7 8 9 10 -25 0
-1 -2 -4 -5 -6 7 9 -10 20 0
-1 -2 3 -4 -5 -6 -8 9 10 -21 0
-1 -2 3 -4 -5 -6 7 -8 10 -22 0
-1 -2 3 -4 -5 -6 -8 9 -23 0
-1 -2 -4 -5 -6 -8 10 -23 0
-1 -2 3 -5 7 -8 -9 21 0
-1 -2 -4 -5 -6 -8 -24 0
-1 -2 -4 -5 -6 7 -8 25 0
-1 -2 -4 -5 -6 -8 9 10 -22 0
3 -4 -5 -6 -16 0
-2 -4 -5 15 0
-1 -2 -3 6 7 8 10 20 0
4 5 6 8 10 -23 0
-1 -2 -3 6 7 8 -10 -20 0
-2 4 5 6 7 -10 23 0
-2 4 6 7 8 9 -22 0
-1 -2 4 5 6 8 -9 22 0
-1 -2 -3 6 7 8 21 0
-1 -2 -3 6 7 9 10 20 0
-1 -2 -3 6 7 9 -10 -20 0
-1 -2 -3 5 7 -8 9 -21 0
-1 -2 -3 4 -8 9 22 0
-2 -3 5 7 -8 10 -21 0
-1 -2 -3 5 6 7 -9 -10 21 0
-1 -2 -3 4 5 6 7 -8 -10 22 0
-2 -3 4 5 6 7 -8 -9 23 0
-1 -2 -3 4 7 -17 0
-1 -2 4 5 -7 9 10 -20 0
-1 -2 -3 -7 8 9 10 -21 0
-1 -2 -3 4 5 6 -7 8 10 22 0
-1 -2 4 5 -7 9 -10 20 0
-1 -2 -3 4 5 8 -10 21 0
-2 4 5 8 9 -10 -22 0
-1 -2 -3 4 5 6 8 -9 21 0
-1 -2 -3 -7 -8 9 10 21 0
-2 -3 4 6 -7 -8 -9 -21 0
-1 -2 -3 4 -7 17 0
-1 -2 -3 4 6 16 0
-1 -2 -3 4 5 -6 8 9 10 -20 0
-1 -2 -3 5 -6 7 9 10 -21 0
-1 -2 -3 4 -6 7 8 10 22 0
4 5 7 8 10 -23 0
-1 -2 -3 4 5 -6 8 9 -10 20 0
-1 -2 -3 -6 7 -9 10 20 0
-1 -2 -3 -6 7 -9 -10 -20 0
-1 -2 -3 7 8 -9 21 0
-1 -2 4 7 8 -9 22 0
4 5 7 8 -25 0
4 5 7 9 -25 0
-1 -2 -3 5 -6 -8 -9 -10 -23 0
-1 -2 -3 -6 -8 -9 -10 -24 0
-1 -2 -3 -6 7 -8 -9 -10 25 0
-1 -2 -3 4 -6 -8 -9 -22 0
-1 -2 -3 5 -6 7 -8 -21 0
-1 -2 4 5 -6 -7 10 -20 0
-1 -2 -3 -6 -7 8 10 -21 0
-1 -2 -3 4 5 -6 9 10 22 0
-1 -2 4 5 -6 -7 -10 20 0
-1 4 5 -6 -7 9 19 0
-1 -2 -3 4 -6 -7 -9 10 -22 0
-1 -2 4 8 -9 -10 22 0
-1 4 5 -6 -7 -9 -19 0
-1 -2 -3 4 5 -6 -7 8 -9 23 0
-1 -2 -3 -6 -7 -8 10 21 0
-1 -2 -3 -6 -8 -10 -21 0
-1 -2 -3 5 -6 -7 -9 10 23 0
-1 -2 -3 -6 -7 -8 -9 -10 -25 0
-1 -2 -3 4 -6 -16 0
4 6 7 8 10 -24 0
-1 -2 -3 -5 7 8 18 0
-1 -2 -3 -5 -8 -9 -10 23 0
-1 -2 -3 4 -5 -8 -9 -22 0
-1 -2 -3 -5 7 -8 -18 0
-1 -2 -3 -5 6 7 -8 -21 0
-1 -2 -3 -5 -7 8 10 -21 0
-1 -2 -3 6 8 -10 21 0
-2 4 6 8 9 -10 -22 0
-1 -2 -3 4 -5 -7 -9 10 -22 0
-1 -2 -3 4 -5 -7 8 -9 -23 0
-1 -2 -3 -5 6 -7 -9 24 0
-1 -2 -3 -5 -8 -10 -21 0
-1 -2 4 -5 6 -8 -9 10 20 0
-1 -2 -3 -5 -7 -9 10 -23 0
-1 -2 4 -5 6 -8 -9 -10 -20 0
-1 -2 -3 4 -5 6 -8 -9 -21 0
-1 -2 -3 -5 -6 7 9 10 -20 0
-1 -2 -3 -5 -6 8 9 10 -21 0
-1 -2 -3 -5 -6 7 9 -10 20 0
-1 -2 -3 7 8 -10 21 0
-2 4 7 8 9 -10 -22 0
-1 -2 -3 -5 -6 7 9 -19 0
-1 -2 -3 -5 -6 7 -9 19 0
-1 -2 -3 -5 -6 -8 9 10 21 0
-1 -2 -3 -5 7 -8 -9 -21 0
-1 -2 -3 -5 -6 -7 8 9 -21 0
-1 -2 -3 4 -5 -6 -7 9 22 0
-1 -2 -3 8 -9 -10 21 0
-1 -2 -3 4 -5 -6 -7 8 -10 22 0
-1 4 -6 -7 -8 9 19 0
-1 4 -6 -7 -8 -9 -19 0
5 6 7 8 9 10 -23 0
-2 5 6 8 9 -10 23 0
-2 -4 6 7 8 9 22 0
-1 -2 -4 7 8 -9 -22 0
-1 -2 -3 -4 5 -8 -10 -23 0
-1 -2 -3 -4 6 -8 -10 24 0
-1 -2 -3 -4 -8 9 -22 0
-1 -2 -3 -4 5 6 7 -8 -10 -22 0
-1 -2 -3 -4 -7 8 10 -21 0
-2 -4 6 8 9 -10 22 0
-2 -3 -4 5 6 -7 8 9 23 0
-1 -2 -3 -4 -7 -9 10 22 0
-1 -2 -4 5 8 -9 -10 -22 0
-2 -3 5 6 -7 -8 -9 10 20 0
-2 -3 5 6 -7 -8 -9 -10 -20 0
-2 -3 5 6 -7 -8 -9 -21 0
-1 -2 -3 -4 -6 7 8 9 10 -20 0
-1 -2 -3 -4 -6 7 8 10 -22 0
-1 -2 -3 -4 -6 7 8 9 -10 20 0
-2 -4 7 8 9 -10 22 0
-1 -2 -3 -4 -6 8 9 -19 0
-1 -2 -3 -4 5 -6 7 8 9 23 0
5 -6 7 8 9 24 0
-1 -2 -3 -4 5 -6 10 23 0
-1 -2 -3 -4 -6 8 -9 19 0
-1 -2 -3 -4 -6 -8 -9 22 0
-1 -2 -3 -4 -6 -7 8 9 10 20 0
-1 -2 -3 -4 -6 -7 8 9 -10 -20 0
-1 -2 -3 -4 5 -6 -7 -10 -23 0
-1 -2 -3 -4 -6 -7 -10 -24 0
-1 -2 -3 -4 -6 -7 -10 -25 0
-1 -2 -3 -4 -6 -7 8 -10 26 0
-1 -2 -3 -4 -6 -7 8 9 -21 0
-1 -2 -3 -4 -6 -7 9 -22 0
-1 -2 -3 -4 -6 -7 8 -10 -22 0
-5 6 7 8 9 10 23 0
-1 -2 -3 -4 -5 7 8 9 10 -24 0
-2 -5 6 8 9 -10 -23 0
-1 -2 -3 -4 -5 -8 -9 22 0
-1 -2 -3 -4 -5 6 -7 10 -20 0
-1 -2 -3 -4 -5 6 -7 -10 20 0
-2 -3 -4 -5 6 -7 8 9 -23 0
-1 -2 -4 6 8 -9 -10 -22 0
-1 -2 -3 -4 -5 -7 -8 10 21 0
-3 -4 -5 6 -16 0
-1 -2 -3 -4 -5 -6 7 8 9 -23 0
-1 -2 -3 -4 -5 -6 10 -23 0
-1 -2 -3 -5 -6 7 -17 0
-1 -2 -3 -4 -5 -6 7 25 0
-1 -2 -3 -4 -5 -6 -7 -10 23 0
-1 -2 -3 -4 -5 -7 -9 10 -20 0
-1 -2 -3 -4 -5 -7 -9 -10 20 0
-1 -2 -3 -4 -5 -7 -8 10 -20 0
-1 -2 -3 -4 -5 -7 -8 -10 20 0
-1 -2 -3 -5 -6 -7 17 0
-3 -4 -5 -6 16 0
-1 -2 -3 -4 -5 -6 -24 0
-1 -2 -12 0
-1 11 0
